ITEM = _(1..45);
knapsack_n = 3;
capacities = [234, 232, 225];
profits = [98, 32, 18, 310, 420, 152, 494, 39, 90, 40, 85, 450, 312, 166, 13, 88, 83, 21, 427, 96, 324, 255, 28, 141, 323, 13, 94, 29, 149, 19, 526, 27, 84, 48, 435, 22, 70, 81, 289, 139, 286, 33, 30, 14, 20];
weights = [29, 9, 3, 63, 90, 31, 42, 5, 21, 5, 20, 57, 75, 18, 5, 28, 30, 12, 86, 24, 49, 52, 6, 25, 41, 6, 17, 4, 30, 12, 36, 9, 31, 27, 40, 10, 16, 32, 70, 23, 68, 10, 7, 4, 9];
